[TITLE]
Scenario: Base 
Date: 7/24/2025 12:44:59 AM 

[JUNCTIONS]
32 150 0 
33 160 0 
34 155 0 
35 150 0 
36 165 0 
37 160 0 

[RESERVOIRS]
31 210 

[DEMANDS]
32 27.7777777777778 
33 27.7777777777778 
34 33.3333333333333 
35 75 
36 91.6666666666667 
37 55.5555555555556 

[EMITTERS]

[PIPES]
42 31 32 1000 558.8 130 0 
43 32 33 1000 203.2 130 0 
44 32 34 1000 406.4 130 0 
45 34 35 1000 355.6 130 0 
46 34 36 1000 355.6 130 0 
47 36 37 1000 355.6 130 0 
48 33 35 1000 50.8 130 0 
49 35 37 1000 50.8 130 0 

[COORDINATES]
32 -12 17  
33 -24 17  
34 -12 5  
35 -24 5  
36 -12 -7  
37 -24 -7  
31 0 17  

[VERTICES]

[OPTIONS]
UNITS LPS 
TRIALS 40 
ACCURACY 0.001 
EMITTER EXPONENT 0.5 
DAMPLIMIT 0 
MAXCHECK 10 
CHECKFREQ 2 
FLOWCHANGE 0 
HEADERROR 0 
SPECIFIC GRAVITY 0.998 
VISCOSITY 0.982157860636364 
UNBALANCED CONTINUE 0 
 HEADLOSS           H-W
QUALITY NONE 

[TIMES]
REPORT START 0  
PATTERN TIMESTEP 1  
QUALITY TIMESTEP 0  

